\ Model shortest_paths
\ LP format - for model browsing. Use MPS format to capture full model detail.
Minimize
  13.818 z[3_2,3^0] + 9.770801502435715 z[3_0,3^0]
   + 11.96673902949337 z[3_1,3^0] + 0.987 z[1_0,1^0]
   + 5.583315144248981 z[2_0,2^0] + 3.948 z[2_0,2^1]
Subject To
 UB-y[1^0,3_0,1]: x[1^0,3_0,1] - y[1^0,3_0,1] <= 0
 UB-y[2^0,3_0,2]: x[2^0,3_0,2] - y[2^0,3_0,2] <= 0
 UB-y[1^1,3_1,1]: x[1^1,3_1,1] - y[1^1,3_1,1] <= 0
 UB-y[2^1,3_1,2]: x[2^1,3_1,2] - y[2^1,3_1,2] <= 0
 UB-y[2^2,3_2,2]: x[2^2,3_2,2] - y[2^2,3_2,2] <= 0
 UB-y[3_0,3^0,1]: x[3_0,3^0,1] - y[3_0,3^0,1] <= 0
 UB-y[3_0,3^0,2]: x[3_0,3^0,2] - y[3_0,3^0,2] <= 0
 UB-y[3_1,3^0,1]: x[3_1,3^0,1] - y[3_1,3^0,1] <= 0
 UB-y[3_1,3^0,2]: x[3_1,3^0,2] - y[3_1,3^0,2] <= 0
 UB-y[3_2,3^0,1]: x[3_2,3^0,1] - y[3_2,3^0,1] <= 0
 UB-y[3_2,3^0,2]: x[3_2,3^0,2] - y[3_2,3^0,2] <= 0
 UB-y[1_0,1^0,1]: x[1_0,1^0,1] - y[1_0,1^0,1] <= 0
 UB-y[1_0,1^1,1]: x[1_0,1^1,1] - y[1_0,1^1,1] <= 0
 UB-y[2_0,2^0,2]: x[2_0,2^0,2] - y[2_0,2^0,2] <= 0
 UB-y[2_0,2^1,2]: x[2_0,2^1,2] - y[2_0,2^1,2] <= 0
 UB-y[2_0,2^2,2]: x[2_0,2^2,2] - y[2_0,2^2,2] <= 0
 UB-z[1,('1^0',_'3_0',_1)]: y[1^0,3_0,1] - z[1^0,3_0] <= 0
 UB-z[1,('2^0',_'3_0',_2)]: y[2^0,3_0,2] - z[2^0,3_0] <= 0
 UB-z[1,('1^1',_'3_1',_1)]: y[1^1,3_1,1] - z[1^1,3_1] <= 0
 UB-z[1,('2^1',_'3_1',_2)]: y[2^1,3_1,2] - z[2^1,3_1] <= 0
 UB-z[1,('2^2',_'3_2',_2)]: y[2^2,3_2,2] - z[2^2,3_2] <= 0
 UB-z[1,('3_0',_'3^0',_1)]: y[3_0,3^0,1] - z[3_0,3^0] <= 0
 UB-z[1,('3_0',_'3^0',_2)]: y[3_0,3^0,2] - z[3_0,3^0] <= 0
 UB-z[1,('3_1',_'3^0',_1)]: y[3_1,3^0,1] - z[3_1,3^0] <= 0
 UB-z[1,('3_1',_'3^0',_2)]: y[3_1,3^0,2] - z[3_1,3^0] <= 0
 UB-z[1,('3_2',_'3^0',_1)]: y[3_2,3^0,1] - z[3_2,3^0] <= 0
 UB-z[1,('3_2',_'3^0',_2)]: y[3_2,3^0,2] - z[3_2,3^0] <= 0
 UB-z[1,('1_0',_'1^0',_1)]: y[1_0,1^0,1] - z[1_0,1^0] <= 0
 UB-z[1,('1_0',_'1^1',_1)]: y[1_0,1^1,1] - z[1_0,1^1] <= 0
 UB-z[1,('2_0',_'2^0',_2)]: y[2_0,2^0,2] - z[2_0,2^0] <= 0
 UB-z[1,('2_0',_'2^1',_2)]: y[2_0,2^1,2] - z[2_0,2^1] <= 0
 UB-z[1,('2_0',_'2^2',_2)]: y[2_0,2^2,2] - z[2_0,2^2] <= 0
 UB-z[2,('1^0',_'3_0',_1)]: y[1^0,3_0,1] - z[1^0,3_0] <= 0
 UB-z[2,('2^0',_'3_0',_2)]: y[2^0,3_0,2] - z[2^0,3_0] <= 0
 UB-z[2,('1^1',_'3_1',_1)]: y[1^1,3_1,1] - z[1^1,3_1] <= 0
 UB-z[2,('2^1',_'3_1',_2)]: y[2^1,3_1,2] - z[2^1,3_1] <= 0
 UB-z[2,('2^2',_'3_2',_2)]: y[2^2,3_2,2] - z[2^2,3_2] <= 0
 UB-z[2,('3_0',_'3^0',_1)]: y[3_0,3^0,1] - z[3_0,3^0] <= 0
 UB-z[2,('3_0',_'3^0',_2)]: y[3_0,3^0,2] - z[3_0,3^0] <= 0
 UB-z[2,('3_1',_'3^0',_1)]: y[3_1,3^0,1] - z[3_1,3^0] <= 0
 UB-z[2,('3_1',_'3^0',_2)]: y[3_1,3^0,2] - z[3_1,3^0] <= 0
 UB-z[2,('3_2',_'3^0',_1)]: y[3_2,3^0,1] - z[3_2,3^0] <= 0
 UB-z[2,('3_2',_'3^0',_2)]: y[3_2,3^0,2] - z[3_2,3^0] <= 0
 UB-z[2,('1_0',_'1^0',_1)]: y[1_0,1^0,1] - z[1_0,1^0] <= 0
 UB-z[2,('1_0',_'1^1',_1)]: y[1_0,1^1,1] - z[1_0,1^1] <= 0
 UB-z[2,('2_0',_'2^0',_2)]: y[2_0,2^0,2] - z[2_0,2^0] <= 0
 UB-z[2,('2_0',_'2^1',_2)]: y[2_0,2^1,2] - z[2_0,2^1] <= 0
 UB-z[2,('2_0',_'2^2',_2)]: y[2_0,2^2,2] - z[2_0,2^2] <= 0
 netflow-multi[3_0,1]: x[3_0,3^0,1] - x[1^0,3_0,1] = 0
 netflow-multi[3_0,2]: x[3_0,3^0,2] - x[2^0,3_0,2] = 0
 netflow-multi[3_1,1]: x[3_1,3^0,1] - x[1^1,3_1,1] = 0
 netflow-multi[3_1,2]: x[3_1,3^0,2] - x[2^1,3_1,2] = 0
 netflow-multi[3_2,1]: x[3_2,3^0,1] = 0
 netflow-multi[3_2,2]: x[3_2,3^0,2] - x[2^2,3_2,2] = 0
 netflow-multi[3^0,1]: - x[3_0,3^0,1] - x[3_1,3^0,1] - x[3_2,3^0,1] = -1
 netflow-multi[3^0,2]: - x[3_0,3^0,2] - x[3_1,3^0,2] - x[3_2,3^0,2] = -1
 netflow-multi[1_0,1]: x[1_0,1^0,1] + x[1_0,1^1,1] = 1
 netflow-multi[1_0,2]: = 1
 netflow-multi[1^0,1]: - x[1_0,1^0,1] + x[1^0,3_0,1] = 0
 netflow-multi[1^0,2]: = 0
 netflow-multi[1^1,1]: - x[1_0,1^1,1] + x[1^1,3_1,1] = 0
 netflow-multi[1^1,2]: = 0
 netflow-multi[2_0,1]: = 1
 netflow-multi[2_0,2]: x[2_0,2^0,2] + x[2_0,2^1,2] + x[2_0,2^2,2] = 1
 netflow-multi[2^0,1]: = 0
 netflow-multi[2^0,2]: - x[2_0,2^0,2] + x[2^0,3_0,2] = 0
 netflow-multi[2^1,1]: = 0
 netflow-multi[2^1,2]: - x[2_0,2^1,2] + x[2^1,3_1,2] = 0
 netflow-multi[2^2,1]: = 0
 netflow-multi[2^2,2]: - x[2_0,2^2,2] + x[2^2,3_2,2] = 0
Bounds
End
